713 -975360458
883294962 463143415 841431636 -932635993 -579039856 -277365520 253261140 818886439 -474812964 -569830163 622522754 84534067 434863205 -567164081 -97576735 -924890046 97447182 150394925 -580363645 773671271 627247601 -963120122 -945093587 -535425643 844013663 -447006768 986898367 77275533 184215228 780773474 -269284352 -879339505 18303610 -984907985 -198705914 858095790 -724280368 -90505025 890326457 -893772707 -509836086 -970626260 398676883 -783445487 -615030282 -311628162 361804322 -446198937 236721100 89469074 -305252374 -233359303 12896331 818500238 -720718037 831615389 663608463 -13427260 -553132801 -993482102 -838619603 219999354 -788148546 145164420 108213382 436586001 -21669358 549372277 -89939678 -270879263 -540870483 -603764205 514962982 68055429 -512958505 -103453393 880598031 -645220540 797420069 974067300 -197202477 -672949423 -301042599 687106632 -94182599 -203467837 797600285 338781838 -353541365 -196732983 -840223748 -57243077 -220817183 971956208 356018631 596902386 -161604060 693149541 970486481 98183708 13648817 -440545614 344996881 -862979507 -649971618 235221145 -839276397 -481607678 990528242 -891481765 -727862479 -971415306 399824857 979988985 -564796293 -639398096 -723492362 -442722561 363986820 899860382 -85917645 20159872 -521023231 700090785 -970290008 604247518 438356985 715026731 -369917906 939298193 -981057171 -862028636 -673579856 -640821258 -242266925 647897714 -974125267 797799986 247559827 -524482160 689831875 545528014 299662051 -643167087 617070364 -949564793 399130511 -961438300 822981351 38387899 -977533465 -799728175 -405897892 -837543056 481339473 -479189779 -952776280 331742577 -50057466 -17716592 -997563340 769297018 -664205819 334842180 461218547 -305331893 -589857660 -819832874 -429069242 -93562271 410074262 -24604478 32214783 -950922319 424078126 90145864 -121044680 605554607 -939437158 -280879322 767818208 529750310 818860108 -179460742 929093060 399681260 824948845 261259043 -707395711 -210206783 -245620734 968784051 451158034 280920654 -207076664 -869932142 -418406510 -456016117 -589387503 -537205232 -987392455 -469858172 -872542294 21726664 -933922555 588293281 526384892 -641642512 156031915 747243879 849940463 355510853 -69908317 815794800 -563751213 884359771 451612683 -893466876 -459301669 -179656929 -259875160 532861824 -288096527 933115508 872261926 915176945 266473726 -139240153 848413581 -977515176 -733972280 -252498898 945617193 -245638401 -318779840 -845105940 425541758 -89987161 -111193037 -896527836 -609862368 -947203411 -343807619 -253008374 560084805 -955714297 -854289903 -567534867 352731717 874488876 638248936 458082826 -647795129 -194538426 -84211684 254157112 -780611764 -316441969 368849560 532691387 445710379 255003001 -322011043 85850811 -6444419 -708832602 -234332963 -888871461 -511097127 -864052468 868735393 -12007263 -904758041 569897189 471736763 -675155805 570706811 -952173404 726164807 -437175321 -913089112 -461464444 959932926 -75578484 -151026057 615518824 -863786434 919257120 95296247 672296980 -922453418 -56258988 653542953 325867138 -645757075 775435651 241649297 617766636 -245494553 -208344013 780911868 -517858683 -414292637 614980537 263105706 90226809 -938105712 -323708043 57638938 -49750341 -433733429 -884324092 -762201513 163623638 643194858 343708111 -187739968 684151131 980804891 -864766077 -753402627 563282397 22440937 -598521260 315794537 -732579231 947035922 -954424225 980684045 -788782355 216643295 -427362856 -982343697 635346711 924918254 -70644174 -857644654 757099583 481616818 -378026750 -831117470 883931516 130530884 177033755 -194650274 608217432 -613096725 404244578 64631462 -97855812 -215032690 10533255 -270304961 775444918 -991909891 914965951 -125837941 179811545 22852896 -365103351 -990812282 737727871 -177194012 -386166005 -961859823 -796884276 984472037 642516088 881081055 60088585 488567257 -369879414 819877133 -618359970 -851167563 695406378 -152200091 205205339 806508192 915449567 543135802 -104176502 877721975 444596657 -495927604 -288733122 -864356541 -963866712 309921239 -899478194 -545213034 95171476 173692874 -433919653 90131774 837012692 -79982554 640428130 229921387 -143463794 -476840172 -985732869 290988096 510636701 -563958584 821881245 51323901 -736841778 997783083 -842617104 818096169 318188003 455590268 191290065 100507211 -847434907 447620571 -15438756 910839272 568575245 33021612 -148385295 -9756800 554670194 380806363 -21133406 -789336329 -855332062 -51516792 874053040 862604539 -389506336 950024144 -548722790 220248178 -802181492 373521070 -502034854 -799018008 663209653 -640779556 117120269 294958972 -781765667 141400114 -783397345 -461986595 -795702236 -719123129 904787195 -220208730 -921967348 -100711345 -617431117 319838647 569408372 -61177233 667715473 653619701 835665494 553610473 351341442 490126385 368768206 258294629 50775893 785521568 -931662816 -700811059 -897090472 -220154541 -307017363 -276960650 886020164 -421421215 -558132038 -62729397 -672770095 55712087 -131993033 -117330741 941000747 -939192159 -619404782 -557137474 779415422 518573953 607526237 262314081 -975540585 -555656628 722784540 548976326 530572147 105309415 -993047842 -806004709 -286174106 313468049 -6080682 -246086952 -756996665 -784617065 512476436 -372312947 234581830 511733207 -253418075 703436797 685806404 402650733 463567088 -904069443 -135295867 -423253901 36404320 -520824762 776425365 585668555 236776595 -766622342 -741825761 -426149295 799054069 -880285625 -25812669 -645597403 74528180 528346311 -325591833 -705064191 -32766307 -281170423 774895747 640215021 -591328711 832492723 -304432173 116917080 102591493 731697446 925974109 465624318 -960649540 -667263975 -921504976 -635758305 202509871 -979990152 973659037 -564786166 -644618246 -854697472 -863788219 -796634508 559438038 -368061060 -878406210 -589611100 -851453948 -402587195 206056076 -886965369 128447015 691562887 -999588738 -749522282 897283545 701218815 173593610 -291904619 -847964853 37625571 -263995296 -711431589 -310548476 857278302 -361057839 -511846185 233864816 -382032309 -909774070 -304926240 82884568 -972293257 -82551188 -313086440 -273115163 544316614 -551540147 406017860 -962208931 874306959 -881495015 265399116 737227029 -938970317 -908260405 -857776545 -338919609 -989512599 -947529514 -568416300 -280898563 -805089726 960804221 -789915518 -987761992 -148504514 799077707 -887633627 881495793 -999739364 -855629023 954296191 -140604976 869113206 -259148115 -950109864 544702878 368404183 -924254908 761254332 -284753143 679148417 983091941 742129872 -10850816 -307346689 -445575167 168084528 -762855176 723156831 -810357102 79207223 849798397 230479484 -193082318 -676398710 59373608 934017806 645093136 -533279984 -397940321 719950933 -664551758 -645754206 519427769 308613702 -566272724 -618650826 638138790 320187301 450347953 -906540203 316938840 705929956 481938269 -746124104 -453297575 -186086886 -47090330 -920850703 -886138911 109980474 -471588060 -968748968 -107822743 -504346787 940404071 -601771486 -987398630 995242314 -681519881 902327965 254791797 570776691 19211031 -547577435 -873310981 -206417884 -869501168 -910425206 -393894346 -21255297 -689683131 186481769 683484248 777873001 979542578 515495302 -519350118 -926858033 825968123 274167036 -942732495 483728693 -34816472 -503504726 -422841115 -925812551 -321992998 517348158 -956690796 -477238851 -452362987 679902629 -872831773 -134831507 -482473076 -943637612 342276403 -760520065 